proyfinal/src/viki/013/experimentInOfficeAgust.take6.output/1565d384-7fdb-42b8-9e66-ac96de1bb598.als.dat
{'cnf.clauses': '118081',
 'cnf.totvars': '69608',
 'conflict literals': '9',
 'conflicts': '6',
 'decisions': '3076',
 'memused.mb': '13.96',
 'outcome': 'UNSAT',
 'propagations': '23224',
 'restarts': '1',
 'solver.msecs': 29,
 'task.msecs': 69}
