proyfinal/src/viki/013/experimentInOfficeAgust.take6.output/1565d384-7fdb-42b8-9e66-ac96de1bb598.als.out
Reading from standard input... Use '--help' for help.
============================[ Problem Statistics ]=============================
|                                                                             |
|  Number of variables:         69608                                         |
|  Number of clauses:          118081                                         |
|  Parse time:                   0.02 s                                       |
|                                                                             |
============================[ Search Statistics ]==============================
| Conflicts |          ORIGINAL         |          LEARNT          | Progress |
|           |    Vars  Clauses Literals |    Limit  Clauses Lit/Cl |          |
===============================================================================
===============================================================================
restarts              : 1
conflicts             : 6              (206 /sec)
decisions             : 3076           (0.00 % random) (105632 /sec)
propagations          : 23224          (797527 /sec)
conflict literals     : 9              (0.00 % deleted)
Memory used           : 13.96 MB
CPU time              : 0.02912 s

UNSATISFIABLE
